<number of tasks>
50

<cycle time>
1000

<order strength>
0.597


<task times>
1 266
2 168
3 114
4 116
5 187
6 138
7 140
8 69
9 101
10 255
11 300
12 323
13 290
14 536
15 200
16 172
17 125
18 244
19 198
20 154
21 577
22 140
23 314
24 489
25 138
26 541
27 29
28 160
29 97
30 65
31 80
32 280
33 256
34 521
35 116
36 204
37 63
38 255
39 427
40 54
41 134
42 560
43 48
44 97
45 231
46 57
47 381
48 47
49 247
50 565

<precedence relations>
1,10
2,42
3,5
3,6
3,7
3,8
3,9
4,5
4,7
4,9
5,10
6,10
7,10
8,42
9,10
9,11
9,12
9,13
9,14
10,15
10,16
10,17
10,18
10,19
10,20
11,42
12,20
12,42
13,20
13,21
14,23
15,22
16,22
16,23
17,21
17,22
17,23
18,21
18,22
18,23
19,38
19,43
21,28
22,28
23,24
23,25
23,26
23,27
24,28
25,28
26,28
27,29
27,30
27,31
27,32
28,33
28,34
28,35
28,36
28,37
29,43
29,50
30,39
30,40
31,37
31,44
32,41
33,43
33,44
33,45
35,41
35,42
36,39
36,40
37,38
37,45
38,42
39,42
41,43
41,44
41,45
42,46
42,47
42,48
42,49
45,50

<end>
